100
32
14
5
22
15
6
28
12
11
30
9
1
8
10
25
13
15
11
13
1
12
2
3
24
4
9
21
1
1
4
1
3
1
2
3
1
2
2
20
1
17
4
6
25
18
4
9
3
17
10
19
1
1
17
10
3
4
2
19
19
2
5
1
1
1
1
1
3
1
2
1
2
1
3
1
1
2
1
2
1
1
4
16
2
6
17
2
7
3
3
1
4
2
3
2
3
3
2
1
1
2